300
300
210
210
210
210
209
209
208
208
208
207
207
205
205
204
204
204
203
203
203
202
202
202
201
200
200
200
200
200
200
198
197
197
196
194
193
193
193
193
192
191
191
190
190
189
189
186
186
186
185
184
183
183
183
182
181
181
181
181
181
180
180
179
179
179
179
179
179
178
178
178
178
176
175
175
174
174
174
173
173
173
173
173
172
172
172
172
172
171
171
169
169
169
169
168
167
167
167
166
165
165
165
164
164
164
164
163
163
162
162
162
161
161
161
160
160
159
159
159
159
159
158
158
158
158
157
157
157
157
157
157
157
155
155
154
154
154
153
152
152
152
152
151
150
150
149
149
149
148
148
147
147
145
144
144
144
143
143
142
142
142
141
141
141
141
140
140
138
138
137
137
137
136
136
135
135
134
134
134
134
134
134
133
133
132
132
131
131
130
129
128
127
126
125
124
123
123
122
122
119
119
119
119
119
118
118
117
116
116
116
115
115
115
114
114
112
111
111
111
110
110
110
108
108
108
107
106
106
106
105
105
104
103
103
103
102
102
101
101
101
100
100
99
98
98
98
96
95
95
95
94
93
92
91
89
89
86
85
84
83
83
82
82
82
82
80
80
79
79
78
78
76
76
76
75
75
75
74
74
73
73
72
71
70
70
70
69
68
67
67
67
65
64
64
64
63
62
62
62
61
61
